
List of user-set options:

                                    Name   Value                used
                           compl_inf_tol = 1                     yes
                         constr_viol_tol = 1                     yes
                            dual_inf_tol = 1000                  yes
                           linear_solver = ma97                  yes
                              ma86_small = 1e-30                  no
                                  ma86_u = 0.0001                 no
                              ma97_order = best                  yes
                              ma97_small = 1e-30                 yes
                            ma97_switch1 = at_start              yes
                            ma97_switch2 = od_hd_reuse           yes
                                  ma97_u = 1e-06                 yes
                               ma97_umax = 0.5                   yes
                                max_iter = 2000                  yes
                    max_refinement_steps = 20                    yes
                    min_refinement_steps = 5                     yes
                                 mu_init = 1e-06                 yes
           mu_superlinear_decrease_power = 1.25                  yes
                   nlp_scaling_min_value = 1e-08                 yes
                        option_file_name = Preset_Case:_261_NCP.opt  yes
                             output_file = ./tmp/Preset_Case:_261_NCP.output  yes
                      print_user_options = yes                   yes
        required_infeasibility_reduction = 1                      no
                                     tol = 1e-08                 yes
                   warm_start_bound_frac = 1e-20                 yes
                   warm_start_bound_push = 1e-20                 yes
                   warm_start_init_point = yes                   yes
              warm_start_mult_bound_push = 1e-20                 yes
                warm_start_mult_init_max = 1e+40                 yes
             warm_start_slack_bound_frac = 1e-20                 yes
             warm_start_slack_bound_push = 1e-20                 yes

******************************************************************************
This program contains Ipopt, a library for large-scale nonlinear optimization.
 Ipopt is released as open source code under the Eclipse Public License (EPL).
         For more information visit http://projects.coin-or.org/Ipopt
******************************************************************************

This is Ipopt version 3.12.10, running with linear solver ma97.

Number of nonzeros in equality constraint Jacobian...:   117140
Number of nonzeros in inequality constraint Jacobian.:      213
Number of nonzeros in Lagrangian Hessian.............:    47462

Total number of variables............................:    29971
                     variables with only lower bounds:    11312
                variables with lower and upper bounds:    15132
                     variables with only upper bounds:        0
Total number of equality constraints.................:    29864
Total number of inequality constraints...............:       25
        inequality constraints with only lower bounds:        4
   inequality constraints with lower and upper bounds:        0
        inequality constraints with only upper bounds:       21

iter    objective    inf_pr   inf_du lg(mu)  ||d||  lg(rg) alpha_du alpha_pr  ls
   0 -2.4714352e-02 1.71e-01 1.18e+02  -6.0 0.00e+00    -  0.00e+00 0.00e+00   0
In iteration 0, 4 Slacks too small, adjusting variable bounds
   1 -2.4714352e-02 1.71e-01 8.23e+03  -6.0 1.08e+06  -2.0 6.95e-09 1.50e-15f  1
   2 -2.4714352e-02 1.71e-01 8.23e+03  -6.0 6.31e+02  -2.5 5.60e-06 1.59e-09f  1
   3 -2.4718864e-02 1.71e-01 8.23e+03  -6.0 1.44e+03  -3.0 8.83e-08 1.87e-04f  1
   4 -2.4718903e-02 1.71e-01 8.23e+03  -6.0 1.44e+03  -2.5 3.96e-05 1.40e-06f  2
   5 -2.4719369e-02 1.71e-01 8.23e+03  -6.0 1.43e+03  -3.0 7.71e-07 3.32e-05h  1
   6 -2.4720478e-02 1.71e-01 8.23e+03  -6.0 1.44e+03  -2.6 2.20e-05 5.01e-05f  1
   7 -2.4720478e-02 1.71e-01 8.23e+03  -6.0 1.62e+04  -3.1 2.83e-06 2.83e-09h  2
   8 -2.4720481e-02 1.71e-01 8.23e+03  -6.0 1.44e+03  -2.6 5.25e-07 1.70e-07h  2
   9 -2.4720482e-02 1.71e-01 8.23e+03  -6.0 1.44e+03  -2.2 3.94e-05 2.17e-08h  3
iter    objective    inf_pr   inf_du lg(mu)  ||d||  lg(rg) alpha_du alpha_pr  ls
  10 -2.4726000e-02 1.71e-01 8.23e+03  -6.0 1.44e+03  -2.7 1.01e-05 2.56e-04h  1
  11 -2.4726420e-02 1.71e-01 8.23e+03  -6.0 1.43e+03  -2.3 3.86e-04 1.93e-05h  1
  12 -2.4756311e-02 1.71e-01 8.23e+03  -6.0 1.43e+03  -2.7 3.02e-05 1.50e-03f  1
  13 -2.4767452e-02 1.71e-01 9.25e+03  -6.0 1.40e+03  -2.3 1.31e-04 4.99e-04f  1
  14 -2.4824451e-02 1.68e-01 1.64e+04  -6.0 1.37e+03  -2.8 2.38e-03 3.91e-03f  1
  15 -2.4835989e-02 1.67e-01 9.83e+03  -6.0 1.26e+03  -2.4 2.31e-03 1.04e-03f  1
  16 -2.4870341e-02 1.59e-01 1.77e+05  -6.0 1.20e+03  -2.8 7.06e-02 5.89e-03f  1
  17r-2.4870341e-02 1.59e-01 1.00e+03  -0.8 0.00e+00  -2.4 0.00e+00 2.06e-08R  2
  18r-2.4895320e-02 1.59e-01 1.67e+03  -0.8 9.75e+03    -  3.17e-06 9.44e-07f  1
  19r-2.4895320e-02 1.59e-01 9.99e+02  -0.8 0.00e+00    -  0.00e+00 1.50e-07R  2
iter    objective    inf_pr   inf_du lg(mu)  ||d||  lg(rg) alpha_du alpha_pr  ls
  20r-2.4896554e-02 1.59e-01 1.33e+03  -0.8 8.35e+03    -  2.10e-06 1.55e-07f  1
  21 -2.4896844e-02 1.59e-01 3.08e+05  -6.0 3.94e+02    -  3.96e-03 2.68e-05h  1
  22r-2.4896844e-02 1.59e-01 1.00e+03  -0.8 0.00e+00    -  0.00e+00 3.51e-07R  4
  23r-2.4897003e-02 1.59e-01 1.03e+03  -0.8 1.87e+05    -  3.09e-06 1.03e-07f  1
  24r-2.4897003e-02 1.59e-01 9.99e+02  -0.8 0.00e+00    -  0.00e+00 2.03e-07R  2
  25r-2.4897539e-02 1.59e-01 1.49e+03  -0.8 7.02e+03    -  3.23e-06 8.47e-08f  1
  26 -2.4897718e-02 1.59e-01 5.80e+05  -6.0 3.92e+02    -  6.63e-03 1.47e-05h  1
  27 -2.4899486e-02 1.59e-01 2.74e+06  -6.0 1.01e+03    -  1.59e-05 7.50e-05h  1
  28 -2.4919944e-02 1.58e-01 2.75e+06  -6.0 1.01e+03    -  1.17e-02 8.74e-04h  1
  29 -2.5319409e-02 1.45e-01 2.95e+06  -6.0 1.02e+03    -  9.70e-04 2.01e-02f  1
iter    objective    inf_pr   inf_du lg(mu)  ||d||  lg(rg) alpha_du alpha_pr  ls
  30 -2.5602222e-02 1.56e-01 2.90e+06  -6.0 6.08e+02    -  3.48e-02 1.52e-02h  1
  31 -2.6408253e-02 1.87e-01 2.78e+06  -6.0 4.83e+02    -  8.14e-03 4.19e-02h  1
  32 -2.6472090e-02 1.86e-01 2.77e+06  -6.0 4.94e+02    -  4.93e-02 4.60e-03h  1
  33 -2.7099780e-02 1.84e-01 2.64e+06  -6.0 4.82e+02    -  9.22e-02 4.51e-02h  1
  34r-2.7099780e-02 1.84e-01 9.99e+02  -0.8 0.00e+00    -  0.00e+00 2.87e-07R  3
  35r-2.7100989e-02 1.84e-01 1.05e+03  -0.8 2.78e+03    -  1.60e-05 1.11e-06f  1
  36 -2.7100994e-02 1.84e-01 4.51e+06  -6.0 3.71e+02    -  6.28e-02 3.75e-07h  4
  37 -2.7128930e-02 1.84e-01 4.80e+09  -6.0 2.71e+03    -  1.89e-06 2.01e-03h  1
  38 -2.7670782e-02 2.11e-01 4.59e+09  -6.0 4.43e+02    -  4.29e-02 4.42e-02h  1
  39 -2.8054054e-02 2.15e-01 4.42e+09  -6.0 4.28e+02    -  4.81e-02 3.65e-02h  1
iter    objective    inf_pr   inf_du lg(mu)  ||d||  lg(rg) alpha_du alpha_pr  ls
  40 -2.9117055e-02 6.00e-01 3.94e+09  -6.0 3.94e+02    -  3.61e-02 1.09e-01h  1
  41 -2.9110513e-02 5.81e-01 3.83e+09  -6.0 2.95e+02    -  4.03e-02 2.87e-02h  2
  42 -2.9073309e-02 5.68e-01 3.76e+09  -6.0 2.71e+02    -  2.87e-02 1.84e-02h  2
  43 -2.9056480e-02 5.64e-01 3.74e+09  -6.0 2.59e+02    -  1.34e-01 5.74e-03h  4
  44 -2.9048362e-02 5.60e-01 3.72e+09  -6.0 4.54e+02    -  1.14e-02 4.24e-03h  6
  45 -2.9041660e-02 5.58e-01 3.71e+09  -6.0 4.75e+02    -  1.79e-02 3.47e-03h  6
  46 -2.8834378e-02 2.25e-01 3.32e+09  -6.0 4.79e+02    -  3.43e-02 1.03e-01h  1
  47 -2.8342282e-02 2.10e-01 3.10e+09  -6.0 2.29e+02    -  2.79e-06 6.70e-02h  2
  48 -2.7817965e-02 2.02e-01 2.98e+09  -6.0 2.31e+02    -  1.05e-01 3.77e-02h  2
  49 -2.7390672e-02 1.97e-01 2.91e+09  -6.0 2.30e+02    -  9.32e-02 2.53e-02h  2
iter    objective    inf_pr   inf_du lg(mu)  ||d||  lg(rg) alpha_du alpha_pr  ls
  50 -2.6788268e-02 1.88e-01 2.77e+09  -6.0 1.58e+02    -  2.17e-01 4.88e-02h  1
  51 -2.6788523e-02 1.87e-01 2.76e+09  -6.0 2.30e+02    -  2.77e-01 9.31e-04h  1
  52 -2.6769014e-02 1.65e-01 2.43e+09  -6.0 2.55e+02    -  3.89e-01 1.23e-01h  2
  53 -2.6888499e-02 1.67e-01 2.09e+09  -6.0 1.89e+02    -  4.58e-01 1.40e-01h  1
  54 -2.6889571e-02 1.67e-01 2.09e+09  -6.0 1.22e+02    -  4.49e-03 1.41e-04h  1
  55 -2.7136000e-02 1.62e-01 2.02e+09  -6.0 1.21e+02    -  5.44e-02 3.21e-02f  3
  56 -2.7421720e-02 1.86e-01 1.95e+09  -6.0 1.27e+02    -  3.97e-02 3.49e-02h  3
  57 -2.7568657e-02 1.93e-01 1.91e+09  -6.0 1.22e+02    -  1.66e-02 1.82e-02h  4
  58r-2.7568657e-02 1.93e-01 1.00e+03  -0.8 0.00e+00  -2.9 0.00e+00 4.28e-07R  3
  59r-2.7565005e-02 1.93e-01 1.00e+03  -0.8 3.96e+05    -  1.42e-07 3.36e-07f  1
iter    objective    inf_pr   inf_du lg(mu)  ||d||  lg(rg) alpha_du alpha_pr  ls
  60 -2.7565175e-02 1.93e-01 2.01e+00  -6.0 6.52e+01    -  4.02e-05 8.09e-05h  1
  61 -2.7565100e-02 1.93e-01 2.34e+05  -6.0 7.56e+01    -  2.81e-02 2.16e-05h  1
  62 -2.7561164e-02 1.87e-01 8.31e+04  -6.0 9.48e+01    -  1.14e-04 2.85e-02h  1
  63 -2.7564373e-02 1.87e-01 1.17e+06  -6.0 1.65e+02    -  1.09e-01 1.42e-03h  1
  64 -2.7678429e-02 1.98e-01 1.12e+06  -6.0 1.70e+02    -  2.90e-02 3.03e-02h  2
  65 -2.7831620e-02 2.16e-01 2.08e+06  -6.0 1.62e+02    -  1.73e-01 3.77e-02h  2
  66 -2.8014870e-02 2.43e-01 2.38e+06  -6.0 1.49e+02    -  1.22e-01 4.21e-02h  3
  67 -2.8161517e-02 2.59e-01 3.77e+06  -6.0 1.38e+02    -  4.19e-01 3.27e-02h  3
  68 -2.8288058e-02 2.76e-01 3.67e+06  -6.0 1.29e+02    -  2.08e-01 2.72e-02h  3
  69 -2.8523521e-02 3.53e-01 3.25e+06  -6.0 1.25e+02    -  5.22e-01 4.97e-02h  2
iter    objective    inf_pr   inf_du lg(mu)  ||d||  lg(rg) alpha_du alpha_pr  ls
  70 -2.8726055e-02 4.03e-01 2.84e+06  -6.0 1.15e+02    -  2.33e-01 3.80e-02h  4
  71 -3.0975700e-02 5.91e+00 2.14e+06  -6.0 1.02e+02    -  1.02e-01 3.79e-01h  1
  72 -3.1092289e-02 5.82e+00 2.11e+06  -6.0 1.21e+02    -  2.16e-03 1.44e-02h  1
  73 -3.1097616e-02 5.82e+00 2.11e+06  -6.0 1.16e+02    -  1.33e-03 7.43e-04h  1
  74 -3.1100699e-02 5.82e+00 2.13e+06  -6.0 1.33e+02    -  2.02e-02 4.07e-04h  1
  75 -3.1110075e-02 5.81e+00 2.13e+06  -6.0 1.39e+02    -  2.59e-03 1.33e-03h  1
  76 -3.1126503e-02 5.79e+00 2.12e+06  -6.0 1.53e+02    -  2.50e-03 2.56e-03h  1
  77 -3.0964968e-02 5.71e+00 2.09e+06  -6.0 1.18e+02    -  6.75e-04 1.43e-02h  6
  78 -3.0886497e-02 5.67e+00 2.08e+06  -6.0 1.15e+02    -  1.77e-02 6.79e-03h  7
  79 -3.0884150e-02 5.67e+00 2.08e+06  -6.0 1.14e+02    -  1.02e-01 2.10e-04h 12
iter    objective    inf_pr   inf_du lg(mu)  ||d||  lg(rg) alpha_du alpha_pr  ls
  80 -3.0883606e-02 5.67e+00 2.08e+06  -6.0 1.17e+02    -  2.66e-02 4.88e-05h 14
  81 -3.0883472e-02 5.67e+00 2.07e+06  -6.0 1.18e+02    -  9.86e-02 1.20e-05h 16
  82 -2.6789617e-02 4.43e+00 1.40e+06  -6.0 1.21e+02    -  2.68e-02 3.68e-01h  1
  83 -3.2715202e-02 3.43e+00 1.46e+06  -6.0 8.36e+01    -  4.92e-01 9.42e-01h  1
  84 -4.3242808e-02 5.23e-01 1.16e+06  -6.0 2.71e+01    -  3.44e-02 9.61e-01h  1
  85 -4.3395158e-02 5.08e-01 1.16e+06  -6.0 4.67e+01    -  4.62e-03 2.86e-02h  1
  86r-4.3395158e-02 5.08e-01 1.00e+03  -0.9 0.00e+00    -  0.00e+00 3.25e-08R  2
  87r-4.3329171e-02 5.00e-01 2.54e+03  -0.9 3.53e+03    -  3.70e-05 1.64e-05f  1
  88 -4.3355115e-02 4.66e-01 2.40e+07  -6.0 2.18e+00    -  3.10e-01 6.81e-02h  1
  89 -4.3524981e-02 2.63e-01 1.80e+08  -6.0 2.04e+00    -  6.81e-02 4.37e-01h  1
iter    objective    inf_pr   inf_du lg(mu)  ||d||  lg(rg) alpha_du alpha_pr  ls
  90 -4.3589957e-02 1.88e-01 1.28e+08  -6.0 1.17e+00    -  6.87e-01 2.87e-01h  1
  91 -4.3790434e-02 5.64e-04 2.55e+02  -6.0 8.10e-01    -  8.96e-01 1.00e+00h  1
  92 -4.4313912e-02 2.39e-03 7.15e+01  -6.0 3.93e+00    -  7.22e-01 1.00e+00h  1
  93 -4.7204839e-02 1.10e-01 2.80e+01  -6.0 2.52e+01    -  3.98e-01 7.03e-01h  1
  94 -4.7309736e-02 1.05e-01 7.15e+01  -6.0 3.35e+01    -  6.34e-01 4.63e-02h  1
  95 -5.1891365e-02 1.93e-01 3.29e+01  -6.0 9.85e+01    -  4.66e-01 7.94e-01f  1
  96 -5.3657107e-02 2.79e-01 2.62e+01  -6.0 1.09e+02    -  6.90e-01 3.01e-01h  1
  97 -5.7319421e-02 9.84e-01 2.14e+01  -6.0 1.92e+02    -  4.81e-01 3.18e-01h  1
  98 -6.5095690e-02 9.83e-01 5.04e+01  -6.0 3.40e+02    -  1.80e-01 5.57e-01h  1
  99 -6.4457189e-02 7.71e-01 3.86e+01  -6.0 3.61e+02    -  3.04e-01 2.88e-01h  1
iter    objective    inf_pr   inf_du lg(mu)  ||d||  lg(rg) alpha_du alpha_pr  ls
 100 -6.7567204e-02 8.11e-01 6.07e+01  -6.0 7.67e+02    -  1.47e-01 1.28e-01h  1
 101 -7.0478312e-02 8.34e-01 1.36e+02  -6.0 5.56e+02    -  1.84e-01 1.39e-01h  1
 102 -7.5354752e-02 3.55e+00 2.82e+04  -6.0 5.55e+02    -  1.11e-02 3.40e-01h  1
 103 -7.7203020e-02 3.31e+00 2.51e+04  -6.0 4.37e+02    -  2.58e-01 1.18e-01h  1
 104 -7.8063483e-02 3.30e+00 2.49e+04  -6.0 1.37e+04    -  9.48e-03 7.64e-03h  1
 105 -8.3946282e-02 3.75e+00 3.60e+04  -6.0 5.43e+02    -  3.28e-02 3.99e-01f  1
 106 -8.3980412e-02 3.72e+00 3.58e+04  -6.0 5.55e+00  -3.4 3.30e-03 7.73e-03h  1
 107 -8.3987429e-02 3.71e+00 3.56e+04  -6.0 4.24e+00  -3.8 1.13e-02 3.60e-03h  1
 108 -8.4041299e-02 3.60e+00 3.46e+04  -6.0 5.40e+00  -4.3 1.51e-02 2.81e-02h  1
 109 -8.4730910e-02 1.95e+00 1.91e+04  -6.0 3.74e+00  -4.8 3.36e-02 4.48e-01h  1
iter    objective    inf_pr   inf_du lg(mu)  ||d||  lg(rg) alpha_du alpha_pr  ls
 110 -8.6465339e-02 1.92e+00 1.90e+04  -6.0 2.70e+03    -  2.19e-02 8.66e-03h  1
 111 -8.7062781e-02 1.50e+00 1.49e+04  -6.0 1.50e+01  -5.3 5.33e-03 2.14e-01h  1
 112 -8.8530117e-02 1.06e+00 1.17e+04  -6.0 3.76e+01  -5.7 2.93e-01 2.13e-01h  1
 113 -8.8813263e-02 9.10e-01 1.01e+04  -6.0 4.24e+01  -6.2 5.32e-01 1.37e-01h  1
 114 -8.9360209e-02 8.34e-01 9.26e+03  -6.0 8.88e+01  -6.7 3.90e-01 8.11e-02h  1
 115 -8.9951865e-02 7.69e-01 8.57e+03  -6.0 1.42e+02  -7.2 7.20e-01 7.42e-02h  1
 116 -9.1062653e-02 2.77e+00 7.17e+03  -6.0 4.01e+02  -7.7 2.50e-01 1.59e-01h  1
 117 -9.2796903e-02 2.23e+00 5.70e+03  -6.0 5.11e+02  -8.1 4.44e-01 1.95e-01h  1
 118 -9.5245600e-02 3.85e+00 2.12e+03  -6.0 1.68e+02  -7.7 5.62e-02 6.12e-01h  1
 119 -9.6535035e-02 9.57e+00 5.65e+02  -6.0 1.53e+02  -7.3 6.45e-01 7.36e-01h  1
iter    objective    inf_pr   inf_du lg(mu)  ||d||  lg(rg) alpha_du alpha_pr  ls
 120 -9.6812322e-02 1.06e+01 5.38e+02  -6.0 2.33e+02  -6.9 2.45e-03 4.70e-02h  1
 121 -9.8740527e-02 9.20e+00 1.50e+02  -6.0 5.40e+01  -7.3 2.76e-06 1.00e+00f  1
 122 -9.9234829e-02 1.09e+01 3.77e+01  -6.0 6.21e+01  -6.0 4.30e-01 1.31e-01h  1
 123 -1.0105646e-01 2.95e+00 1.54e+02  -6.0 7.20e+01  -6.5 3.25e-01 8.33e-01h  1
 124 -1.0169942e-01 1.47e+00 2.41e+01  -6.0 2.07e+01  -6.1 7.78e-01 7.38e-01h  1
 125 -1.0199162e-01 1.38e+00 1.83e+01  -6.0 6.14e+01  -6.5 3.94e-01 1.35e-01h  1
 126 -1.0227642e-01 2.29e-01 2.35e+01  -6.0 1.76e+01  -7.0 1.74e-01 8.03e-01h  1
 127 -1.0259899e-01 1.32e-01 3.46e+01  -6.0 5.30e+01  -7.5 1.00e+00 4.26e-01h  1
 128 -1.0431144e-01 5.74e-01 2.14e+00  -6.0 1.64e+02  -8.0 1.00e+00 1.00e+00h  1
 129 -1.0572106e-01 1.54e+00 4.21e+01  -6.0 5.64e+02  -8.4 2.57e-01 4.26e-01h  1
iter    objective    inf_pr   inf_du lg(mu)  ||d||  lg(rg) alpha_du alpha_pr  ls
 130 -1.0769500e-01 1.01e+01 3.02e+01  -6.0 3.41e+03  -8.9 1.84e-01 1.91e-01h  1
 131 -1.0870647e-01 8.09e+00 5.72e+01  -6.0 7.37e+02  -8.5 5.05e-01 2.77e-01h  1
 132 -1.1126973e-01 1.68e+01 4.96e+01  -6.0 2.98e+03  -9.0 4.49e-01 2.46e-01h  1
 133 -1.1404975e-01 1.11e+01 1.33e+02  -6.0 1.32e+03  -9.4 3.93e-01 3.48e-01h  1
 134 -1.1475597e-01 9.88e+00 1.23e+03  -6.0 9.71e+02  -9.0 1.00e+00 1.35e-01h  1
 135 -1.1707947e-01 6.67e+00 2.14e+02  -6.0 1.62e+03  -9.5 5.57e-01 3.26e-01h  1
 136 -1.1812973e-01 5.42e+00 1.99e+02  -6.0 1.39e+03  -9.1 1.14e-01 2.63e-01h  1
 137 -1.2082170e-01 5.84e+00 9.18e+01  -6.0 1.44e+03  -9.5 4.17e-02 3.81e-01h  1
 138 -1.2091254e-01 5.69e+00 8.88e+01  -6.0 1.17e+03  -9.1 6.32e-02 2.56e-02h  1
 139 -1.2307815e-01 8.99e+00 6.27e+01  -6.0 1.51e+03  -9.6 2.25e-01 3.13e-01h  1
iter    objective    inf_pr   inf_du lg(mu)  ||d||  lg(rg) alpha_du alpha_pr  ls
 140 -1.2365714e-01 7.52e+00 5.33e+01  -6.0 3.10e+03 -10.1 1.54e-01 1.78e-01h  1
 141 -1.2440375e-01 6.62e+00 1.25e+02  -6.0 2.54e+03 -10.6 2.37e-02 1.36e-01h  1
 142 -1.2505539e-01 2.99e+01 2.31e+02  -6.0 8.04e+03 -11.0 1.77e-02 1.27e-01h  1
 143 -1.2513681e-01 2.95e+01 2.31e+02  -6.0 1.22e+05 -11.5 1.02e-02 1.20e-02h  1
 144 -1.2529460e-01 2.88e+01 7.24e+01  -6.0 3.59e+03 -10.2 1.77e-01 6.07e-02h  1
 145 -1.2563817e-01 3.09e+01 1.84e+02  -6.0 3.09e+03  -9.8 7.88e-02 1.91e-01h  1
 146 -1.2637983e-01 1.77e+00 1.22e+03  -6.0 6.00e+02  -9.3 6.74e-02 1.00e+00h  1
 147 -1.2640274e-01 1.68e+00 4.08e+02  -6.0 4.95e+01  -6.2 1.55e-02 5.03e-02h  1
 148 -1.2641067e-01 4.60e-03 9.87e+02  -6.0 6.23e+00  -6.7 3.67e-01 1.00e+00h  1
 149 -1.2647471e-01 7.22e-02 2.91e+02  -6.0 1.36e+01  -7.1 3.44e-01 1.00e+00h  1
iter    objective    inf_pr   inf_du lg(mu)  ||d||  lg(rg) alpha_du alpha_pr  ls
 150 -1.2662052e-01 2.81e-01 6.80e+01  -6.0 4.30e+01  -7.6 6.92e-01 1.00e+00h  1
 151 -1.2701853e-01 6.54e-01 2.54e+01  -6.0 1.22e+02  -8.1 3.49e-01 7.26e-01h  1
 152 -1.2794268e-01 1.21e+00 4.51e+03  -6.0 1.89e+02  -8.6 6.13e-01 1.00e+00h  1
 153 -1.2822189e-01 1.22e+00 1.31e+04  -6.0 7.16e+02  -9.1 2.74e-01 7.68e-02h  1
 154 -1.2855071e-01 1.30e+00 1.35e+04  -6.0 3.71e+03  -9.5 5.16e-02 4.19e-02h  1
 155 -1.2859759e-01 1.24e+00 1.27e+04  -6.0 9.13e+02  -8.2 1.48e-02 4.57e-02h  1
 156 -1.2867385e-01 1.19e+00 9.01e+03  -6.0 2.69e+02  -8.7 1.86e-02 5.10e-02h  1
 157 -1.2875439e-01 1.00e+00 1.70e+07  -6.0 2.56e+01  -6.4 3.51e-04 1.56e-01h  1
 158 -1.2873797e-01 3.10e-01 5.26e+06  -6.0 7.83e+00  -6.0 5.99e-02 6.90e-01h  1
 159 -1.2871905e-01 1.85e-01 3.13e+06  -6.0 4.58e+01  -6.5 3.10e-01 4.04e-01f  1
iter    objective    inf_pr   inf_du lg(mu)  ||d||  lg(rg) alpha_du alpha_pr  ls
 160 -1.2874193e-01 1.82e-03 2.87e+02  -6.0 3.87e+00  -7.0 1.00e+00 1.00e+00h  1
 161 -1.2888578e-01 2.62e-02 6.56e+01  -6.0 3.11e+01  -7.5 6.95e-01 7.72e-01h  1
 162 -1.2916788e-01 8.38e-01 2.94e+01  -6.0 9.93e+01  -7.9 5.79e-01 5.35e-01h  1
 163 -1.2927362e-01 5.03e-01 2.16e+01  -6.0 1.33e+02  -8.4 3.89e-01 2.94e-01h  1
 164 -1.2947682e-01 2.27e-01 3.13e+01  -6.0 2.31e+02  -8.9 6.78e-01 3.00e-01h  1
 165 -1.2971376e-01 8.23e-01 2.09e+01  -6.0 9.40e+02  -9.4 3.25e-01 3.08e-01h  1
 166 -1.2986938e-01 6.45e-01 2.79e+01  -6.0 2.12e+02  -8.9 1.00e+00 5.41e-01h  1
Error in an AMPL evaluation. Run with "halt_on_ampl_error yes" to see details.
Warning: Cutting back alpha due to evaluation error
 167 -1.2995898e-01 7.55e-01 1.24e+02  -6.0 7.93e+02  -9.4 7.91e-01 1.21e-01h  2
 168 -1.3021188e-01 7.52e-01 7.76e+01  -6.0 2.52e+02  -9.0 1.00e+00 5.88e-01h  1
 169 -1.3063736e-01 1.01e+01 5.56e+01  -6.0 1.01e+03  -9.5 3.11e-01 6.95e-01h  1
Error in an AMPL evaluation. Run with "halt_on_ampl_error yes" to see details.
Warning: Cutting back alpha due to evaluation error
iter    objective    inf_pr   inf_du lg(mu)  ||d||  lg(rg) alpha_du alpha_pr  ls
 170 -1.3063982e-01 9.97e+00 5.40e+01  -6.0 9.02e+02  -9.0 1.18e-02 1.02e-02h  2
 171 -1.3070591e-01 9.83e+00 4.33e+01  -6.0 8.12e+03  -9.5 6.34e-02 1.64e-02h  1
 172 -1.3073771e-01 9.22e+00 4.06e+01  -6.0 3.42e+02  -9.1 7.62e-02 6.35e-02h  1
 173 -1.3086391e-01 2.70e+00 1.89e+03  -6.0 1.66e+02  -7.8 5.61e-02 7.07e-01f  1
 174 -1.3089126e-01 8.78e-01 9.17e+03  -6.0 4.43e+01  -6.4 2.19e-02 6.75e-01h  1
 175 -1.3090395e-01 7.30e-03 7.10e+01  -6.0 1.07e+01  -6.9 5.09e-01 1.00e+00h  1
 176 -1.3092493e-01 2.48e-02 1.74e+01  -6.0 3.02e+01  -7.4 7.59e-01 1.00e+00h  1
 177 -1.3099541e-01 2.21e-01 4.41e+01  -6.0 9.02e+01  -7.9 2.33e-01 1.00e+00h  1
 178 -1.3107903e-01 2.34e+00 3.52e+01  -6.0 5.95e+01  -7.4 4.66e-01 1.00e+00h  1
 179 -1.3151876e-01 7.97e+00 4.94e+01  -6.0 8.04e+01  -7.0 2.60e-01 9.32e-01h  1
iter    objective    inf_pr   inf_du lg(mu)  ||d||  lg(rg) alpha_du alpha_pr  ls
 180 -1.3146599e-01 7.57e+00 4.36e+01  -6.0 8.76e+01  -7.5 4.57e-03 6.82e-02h  1
 181 -1.3159008e-01 8.54e+00 1.92e+01  -6.0 1.91e+02  -6.2 9.79e-03 2.81e-02f  1
 182 -1.3172845e-01 8.59e+00 2.08e+01  -6.0 7.72e+01  -6.6 5.25e-01 5.35e-02h  1
 183 -1.3188444e-01 5.91e+00 1.54e+01  -6.0 1.51e+01  -7.1 3.84e-01 3.17e-01h  1
 184 -1.3210604e-01 2.79e+00 6.36e+00  -6.0 4.78e+01  -7.6 1.00e+00 6.82e-01h  1
 185 -1.3216370e-01 1.53e-01 5.31e-01  -6.0 1.77e+01  -7.2 1.00e+00 9.64e-01h  1
 186 -1.3225720e-01 5.99e-02 5.42e-01  -6.0 5.33e+01  -7.6 9.06e-01 8.80e-01h  1
 187 -1.3248206e-01 6.38e-01 5.55e+00  -6.0 1.55e+02  -8.1 8.59e-01 1.00e+00f  1
 188 -1.3266548e-01 8.66e-01 2.34e+01  -6.0 3.44e+02  -8.6 5.37e-01 3.92e-01h  1
 189 -1.3303290e-01 1.89e+00 4.54e+01  -6.0 3.14e+02  -9.1 1.00e+00 1.00e+00h  1
iter    objective    inf_pr   inf_du lg(mu)  ||d||  lg(rg) alpha_du alpha_pr  ls
 190 -1.3306672e-01 1.82e+00 3.58e+03  -6.0 7.23e+02  -9.6 2.28e-01 5.21e-02h  1
 191 -1.3354812e-01 1.15e+01 3.94e+03  -6.0 3.33e+03 -10.0 3.81e-01 3.14e-01h  1
 192 -1.3373408e-01 2.83e+01 9.06e+02  -6.0 4.64e+03 -10.5 2.47e-02 3.49e-01h  1
 193 -1.3405398e-01 2.31e+01 1.60e+03  -6.0 8.75e+03 -11.0 9.93e-02 1.85e-01h  1
 194 -1.3404604e-01 1.58e+01 1.68e+03  -6.0 4.65e+02  -9.7 6.29e-01 3.14e-01h  1
 195 -1.3404664e-01 1.58e+01 1.68e+03  -6.0 4.16e+06    -  2.66e-04 5.87e-05h  3
 196 -1.3407232e-01 9.07e+00 1.40e+03  -6.0 1.07e+03 -10.1 5.89e-01 4.27e-01h  1
 197 -1.3417537e-01 5.55e+00 7.78e+02  -6.0 2.09e+03 -10.6 3.00e-01 3.88e-01h  1
 198 -1.3413182e-01 4.80e+00 5.91e+02  -6.0 4.95e+02 -10.2 9.54e-03 1.36e-01h  1
 199 -1.3415205e-01 3.93e+00 7.62e+02  -6.0 1.48e+03 -10.7 6.15e-01 1.81e-01h  1
iter    objective    inf_pr   inf_du lg(mu)  ||d||  lg(rg) alpha_du alpha_pr  ls
 200 -1.3416853e-01 2.57e+01 5.73e+02  -6.0 5.72e+03 -11.1 1.85e-01 2.34e-01h  1
 201 -1.3420470e-01 2.69e+01 4.10e+02  -6.0 2.58e+03    -  1.94e-01 3.58e-01h  1
 202 -1.3418833e-01 2.60e+01 4.63e+02  -6.0 8.62e+01  -5.3 1.33e-02 3.30e-02h  1
 203 -1.3419643e-01 2.40e+01 7.37e+02  -6.0 1.50e+01  -5.8 1.73e-01 7.88e-02h  1
 204 -1.3421232e-01 1.94e+01 6.00e+02  -6.0 1.57e+01  -6.2 1.58e-01 1.91e-01h  1
 205 -1.3421045e-01 1.85e+01 5.74e+02  -6.0 1.10e+04    -  2.49e-03 4.64e-02h  2
 206 -1.3421166e-01 1.82e+01 5.53e+02  -6.0 1.56e+01  -6.7 7.83e-01 1.44e-02h  1
Error in an AMPL evaluation. Run with "halt_on_ampl_error yes" to see details.
Warning: Cutting back alpha due to evaluation error
 207 -1.3421201e-01 1.82e+01 5.52e+02  -6.0 7.83e+00  -4.5 1.11e-02 2.40e-03h  2
Error in an AMPL evaluation. Run with "halt_on_ampl_error yes" to see details.
Warning: Cutting back alpha due to evaluation error
 208 -1.3421235e-01 1.81e+01 5.55e+02  -6.0 1.38e+01  -5.0 1.69e-01 4.78e-03h  2
 209 -1.3420826e-01 1.81e+01 5.67e+02  -6.0 8.65e+03    -  1.42e-02 1.05e-03h  6
iter    objective    inf_pr   inf_du lg(mu)  ||d||  lg(rg) alpha_du alpha_pr  ls
 210 -1.3421372e-01 1.19e+01 3.63e+02  -6.0 2.41e+01  -5.4 7.16e-01 3.42e-01h  1
 211 -1.3421708e-01 1.05e+00 3.60e+01  -6.0 1.30e+01  -5.9 4.35e-01 9.12e-01h  1
 212 -1.3433670e-01 1.01e+00 2.88e+01  -6.0 4.72e+04    -  3.52e-03 4.08e-02h  1
 213 -1.3431541e-01 9.82e-01 3.13e+01  -6.0 1.07e+04    -  1.81e-02 2.61e-02h  3
 214 -1.3434381e-01 5.18e-01 1.54e+01  -6.0 4.76e+00  -6.4 6.42e-01 4.73e-01h  1
 215 -1.3436228e-01 2.69e-01 7.49e+01  -6.0 1.06e+01  -6.9 1.37e-01 5.63e-01h  1
Error in an AMPL evaluation. Run with "halt_on_ampl_error yes" to see details.
Warning: Cutting back alpha due to evaluation error
 216 -1.3436336e-01 2.44e-01 5.48e+01  -6.0 2.99e+01  -7.4 1.83e-01 1.42e-01h  2
 217 -1.3436908e-01 2.32e-01 1.29e+02  -6.0 7.84e+01  -7.8 9.99e-01 5.47e-02h  1
Error in an AMPL evaluation. Run with "halt_on_ampl_error yes" to see details.
Warning: Cutting back alpha due to evaluation error
 218 -1.3437041e-01 2.33e-01 1.32e+02  -6.0 2.47e+02  -8.3 1.98e-02 1.49e-02h  2
Error in an AMPL evaluation. Run with "halt_on_ampl_error yes" to see details.
Warning: Cutting back alpha due to evaluation error
 219 -1.3441133e-01 2.21e-01 1.20e+02  -6.0 5.11e+02  -8.8 3.81e-02 5.99e-02h  2
iter    objective    inf_pr   inf_du lg(mu)  ||d||  lg(rg) alpha_du alpha_pr  ls
 220 -1.3469482e-01 8.43e-01 8.91e+01  -6.0 9.29e+02  -9.3 1.49e-01 2.11e-01h  1
 221 -1.3471501e-01 7.30e-01 7.51e+01  -6.0 1.38e+02  -7.9 1.55e-01 1.36e-01f  1
Error in an AMPL evaluation. Run with "halt_on_ampl_error yes" to see details.
Warning: Cutting back alpha due to evaluation error
 222 -1.3472365e-01 7.03e-01 7.42e+01  -6.0 2.02e+02  -8.4 5.26e-04 3.87e-02f  2
 223 -1.3474151e-01 6.85e-01 6.99e+01  -6.0 4.17e+02  -8.9 1.00e-01 2.89e-02h  1
 224 -1.3482899e-01 1.20e+00 6.09e+01  -6.0 1.47e+03  -9.4 1.38e-01 1.24e-01f  1
 225 -1.3493075e-01 9.47e-01 7.25e+01  -6.0 3.91e+02  -8.9 3.31e-01 2.12e-01h  1
 226 -1.3503554e-01 8.82e-01 2.58e+02  -6.0 5.70e+02  -9.4 5.69e-01 1.70e-01h  1
 227 -1.3507241e-01 1.14e+00 1.27e+02  -6.0 2.34e+02  -9.0 1.21e-01 7.95e-01h  1
 228 -1.3530475e-01 1.31e+00 2.76e+02  -6.0 4.58e+02  -8.6 1.25e-01 5.66e-01h  1
 229 -1.3529967e-01 8.57e-01 3.38e+02  -6.0 2.45e+02  -9.0 1.67e-01 5.29e-01h  1
iter    objective    inf_pr   inf_du lg(mu)  ||d||  lg(rg) alpha_du alpha_pr  ls
 230 -1.3533152e-01 1.57e+00 2.07e+03  -6.0 2.98e+02  -9.5 4.88e-01 9.26e-01h  1
 231 -1.3531079e-01 1.08e+00 2.51e+04  -6.0 2.10e+02  -9.1 8.33e-02 8.26e-01h  1
 232 -1.3532777e-01 1.58e+00 2.42e+04  -6.0 4.18e+03  -9.6 7.17e-02 3.36e-02f  1
 233 -1.3506971e-01 3.31e-01 2.00e+02  -6.0 1.20e+02  -9.1 2.28e-03 1.00e+00h  1
 234 -1.3539479e-01 3.45e-01 9.96e+00  -6.0 3.48e+02  -9.6 8.99e-01 1.00e+00h  1
 235 -1.3545809e-01 4.18e-01 1.19e+01  -6.0 1.06e+03 -10.1 8.09e-01 1.70e-01h  1
 236 -1.3563669e-01 1.53e+00 2.80e+00  -6.0 4.30e+02  -9.7 1.00e+00 1.00e+00h  1
 237 -1.3580685e-01 1.93e+01 9.39e+01  -6.0 1.15e+03 -10.1 1.60e-01 1.00e+00h  1
 238 -1.3600905e-01 1.32e+01 7.97e+01  -6.0 3.48e+02  -9.7 1.82e-01 3.18e-01h  1
 239 -1.3604756e-01 3.13e+00 1.67e+01  -6.0 8.47e+01  -9.3 1.00e+00 1.00e+00h  1
iter    objective    inf_pr   inf_du lg(mu)  ||d||  lg(rg) alpha_du alpha_pr  ls
 240 -1.3612620e-01 3.89e+00 4.48e+01  -6.0 1.33e+03  -9.8 1.60e-01 4.42e-02h  2
 241 -1.3636279e-01 8.87e+00 3.56e+01  -6.0 6.54e+02 -10.2 3.45e-01 6.60e-01h  1
 242 -1.3655953e-01 8.17e+00 4.73e+01  -6.0 9.20e+02  -9.8 3.81e-01 2.85e-01h  1
 243 -1.3665160e-01 1.19e+01 4.84e+01  -6.0 3.34e+02  -9.4 4.09e-01 4.22e-01h  1
 244 -1.3667857e-01 1.09e+01 3.48e+02  -6.0 7.23e+02  -9.9 6.36e-01 1.41e-01h  1
 245 -1.3675999e-01 6.99e+00 2.62e+02  -6.0 1.70e+02  -9.4 6.81e-01 4.04e-01h  1
 246 -1.3686617e-01 4.45e+00 1.09e+02  -6.0 5.93e+02  -9.9 4.63e-01 3.64e-01h  1
 247 -1.3696103e-01 2.74e+00 2.49e+01  -6.0 2.44e+02  -9.5 4.36e-01 3.89e-01h  1
 248 -1.3689869e-01 8.19e-02 9.68e-01  -6.0 4.88e+01  -9.1 1.00e+00 1.00e+00h  1
 249 -1.3691498e-01 5.45e-01 2.97e-01  -6.0 1.75e+02  -9.6 1.00e+00 1.00e+00h  1
iter    objective    inf_pr   inf_du lg(mu)  ||d||  lg(rg) alpha_du alpha_pr  ls
 250 -1.3690978e-01 1.02e+01 2.85e+01  -6.0 7.59e+02 -10.0 5.05e-01 1.00e+00h  1
 251 -1.3689807e-01 4.87e+00 1.74e+01  -6.0 1.68e+03    -  4.59e-01 5.60e-01h  1
 252 -1.3689250e-01 1.62e+00 3.68e-01  -6.0 6.81e+02    -  1.00e+00 1.00e+00h  1
 253 -1.3688455e-01 8.45e-02 1.99e-02  -6.0 6.70e+01    -  1.00e+00 1.00e+00h  1
 254 -1.3688472e-01 8.35e-04 6.66e-05  -6.0 6.61e+00    -  1.00e+00 1.00e+00h  1
 255 -1.3688473e-01 3.63e-07 6.21e-08  -6.0 1.39e-01    -  1.00e+00 1.00e+00h  1
 256 -1.3751986e-01 1.01e+00 3.47e+01  -7.5 3.44e+03    -  1.45e-01 2.47e-01f  1
 257 -1.3786016e-01 1.32e+00 2.23e+01  -7.5 3.25e+03    -  2.37e-01 2.06e-01h  1
 258 -1.3807391e-01 1.46e+00 1.76e+01  -7.5 3.10e+03    -  2.50e-01 2.06e-01h  1
 259 -1.3822577e-01 1.34e+00 1.70e+02  -7.5 1.20e+03  -9.6 4.50e-02 7.84e-02h  1
iter    objective    inf_pr   inf_du lg(mu)  ||d||  lg(rg) alpha_du alpha_pr  ls
 260 -1.3834381e-01 1.23e+00 1.53e+02  -7.5 1.94e+03 -10.1 1.12e-01 8.61e-02h  1
 261 -1.3849519e-01 3.58e+00 3.74e+02  -7.5 1.78e+03 -10.6 3.91e-02 2.38e-01h  1
 262 -1.3851208e-01 3.75e+00 3.67e+02  -7.5 5.45e+03 -11.0 1.13e-01 2.27e-02h  1
 263 -1.3867103e-01 1.16e+01 2.46e+02  -7.5 2.28e+03 -10.6 8.44e-02 3.23e-01h  1
 264 -1.3876238e-01 2.82e+01 2.07e+02  -7.5 6.51e+03 -11.1 2.61e-02 1.59e-01h  1
 265 -1.3895297e-01 1.20e+01 8.95e+01  -7.5 1.81e+03    -  5.23e-01 5.74e-01h  1
 266 -1.3899611e-01 9.13e+00 6.65e+01  -7.5 8.55e+02    -  3.46e-01 2.41e-01h  1
 267 -1.3907135e-01 4.89e+00 3.43e+01  -7.5 7.26e+02    -  8.14e-01 4.85e-01h  1
 268 -1.3914131e-01 9.04e+00 1.68e+01  -7.5 1.29e+03    -  6.15e-02 5.11e-01h  1
 269 -1.3922894e-01 4.91e+00 3.45e+01  -7.5 4.96e+02    -  9.29e-02 9.37e-01h  1
iter    objective    inf_pr   inf_du lg(mu)  ||d||  lg(rg) alpha_du alpha_pr  ls
 270 -1.3925663e-01 4.19e+00 3.80e+01  -7.5 1.03e+03    -  1.24e-01 1.95e-01h  1
 271 -1.3932418e-01 2.62e+00 3.37e+01  -7.5 2.74e+01  -7.9 6.33e-01 8.25e-01h  1
 272 -1.3936214e-01 1.07e+02 1.22e+02  -7.5 7.91e+03    -  5.93e-02 3.85e-01h  1
 273 -1.3941363e-01 8.45e+01 3.52e+02  -7.5 3.14e+03    -  3.34e-03 5.47e-01h  1
 274 -1.3950641e-01 8.64e-02 5.58e+02  -7.5 6.22e+00  -8.4 5.06e-01 1.00e+00h  1
 275 -1.3952803e-01 6.96e-02 6.59e+02  -7.5 1.06e+01  -8.9 5.46e-01 1.94e-01h  1
 276 -1.3959303e-01 2.72e-01 1.50e+03  -7.5 1.44e+01  -9.4 1.00e+00 5.61e-01h  1
 277 -1.3960129e-01 2.60e-01 3.37e+03  -7.5 2.51e+01  -9.9 3.92e-01 5.87e-02h  1
 278 -1.3962257e-01 2.21e-01 4.63e+03  -7.5 7.26e+02 -10.3 7.87e-01 1.50e-01h  1
 279 -1.3964487e-01 5.26e-01 3.97e+03  -7.5 1.29e+03 -10.8 4.32e-01 1.40e-01h  1
iter    objective    inf_pr   inf_du lg(mu)  ||d||  lg(rg) alpha_du alpha_pr  ls
 280 -1.3968807e-01 9.94e+00 3.28e+03  -7.5 3.73e+03 -11.3 2.13e-01 2.35e-01h  1
 281 -1.3969125e-01 9.83e+00 9.42e+02  -7.5 7.06e+04    -  1.43e-04 1.22e-02h  1
 282 -1.3969159e-01 9.82e+00 5.99e+03  -7.5 1.57e+04    -  1.81e-02 1.37e-03h  1
 283 -1.3971142e-01 3.41e+01 6.41e+03  -7.5 1.82e+03    -  4.80e-03 6.88e-01f  1
 284 -1.3971366e-01 3.36e+01 6.33e+03  -7.5 6.71e+03    -  1.86e-01 1.37e-02h  1
 285 -1.3971638e-01 3.21e+01 6.03e+03  -7.5 8.42e+02 -10.0 1.01e-02 4.62e-02h  1
 286 -1.3974167e-01 2.59e+01 4.47e+03  -7.5 3.93e+03    -  1.98e-01 2.56e-01h  1
 287 -1.3977412e-01 4.08e+01 2.29e+03  -7.5 2.93e+03    -  8.71e-02 4.84e-01h  1
 288 -1.3977122e-01 3.76e+01 2.10e+03  -7.5 1.32e+03    -  1.78e-03 8.17e-02h  1
 289 -1.3976963e-01 3.28e+01 1.83e+03  -7.5 2.85e+02    -  6.13e-03 1.29e-01h  1
iter    objective    inf_pr   inf_du lg(mu)  ||d||  lg(rg) alpha_du alpha_pr  ls
 290 -1.3977993e-01 8.39e+00 3.66e+02  -7.5 7.25e+02    -  6.82e-02 1.00e+00h  1
 291 -1.3979982e-01 1.37e+01 2.83e+02  -7.5 9.73e+02    -  1.11e-01 9.63e-01h  1
 292 -1.3983369e-01 6.08e+01 4.25e+02  -7.5 3.30e+04    -  8.60e-02 5.31e-02h  1
 293 -1.3983267e-01 5.93e+01 4.15e+02  -7.5 2.13e+03    -  2.58e-01 2.56e-02h  1
 294 -1.3983221e-01 5.10e+01 3.57e+02  -7.5 3.63e+01    -  1.42e-03 1.41e-01h  1
 295 -1.3983062e-01 1.31e+00 8.98e+01  -7.5 9.74e+01    -  1.99e-01 1.00e+00f  1
 296 -1.3983445e-01 7.82e-01 1.33e+01  -7.5 2.46e+02    -  2.61e-01 8.51e-01h  1
 297 -1.3986534e-01 5.63e+01 1.27e+02  -7.5 1.22e+04    -  6.88e-02 1.49e-01h  1
 298 -1.3986429e-01 5.60e+01 1.27e+02  -7.5 9.78e+03    -  3.63e-03 6.47e-03h  1
 299 -1.3986240e-01 4.98e+01 1.12e+02  -7.5 9.49e+02    -  2.84e-02 1.15e-01h  1
iter    objective    inf_pr   inf_du lg(mu)  ||d||  lg(rg) alpha_du alpha_pr  ls
 300 -1.3985386e-01 3.47e+00 3.02e+01  -7.5 4.80e+02    -  1.57e-02 1.00e+00h  1
 301 -1.3985977e-01 3.46e+00 9.11e+00  -7.5 3.60e+02    -  3.84e-01 1.00e+00h  1
 302 -1.3988167e-01 3.25e+01 9.72e+01  -7.5 1.99e+03    -  4.95e-02 6.59e-01h  1
 303 -1.3985191e-01 1.48e+00 4.28e+02  -7.5 2.19e+03    -  1.00e+00 1.00e+00H  1
 304 -1.3988337e-01 3.08e+01 2.43e+02  -7.5 2.32e+03    -  2.88e-02 6.98e-01H  1
 305 -1.3988529e-01 3.95e-01 3.04e+01  -7.5 1.35e+02    -  1.00e+00 1.00e+00h  1
 306 -1.3988511e-01 9.64e-05 5.07e-02  -7.5 1.79e+00    -  1.00e+00 1.00e+00h  1
 307 -1.3988512e-01 8.05e-06 3.06e-05  -7.5 6.32e-01    -  1.00e+00 1.00e+00h  1
 308 -1.3988512e-01 2.82e-10 4.09e-09  -7.5 3.42e-03    -  1.00e+00 1.00e+00h  1
 309 -1.3988928e-01 1.93e-01 3.07e+00  -9.0 2.25e+02    -  3.70e-01 4.44e-01h  1
iter    objective    inf_pr   inf_du lg(mu)  ||d||  lg(rg) alpha_du alpha_pr  ls
 310 -1.3989844e-01 4.67e+01 1.51e+02  -9.0 5.07e+04    -  4.83e-02 3.02e-02h  1
 311 -1.3989998e-01 4.70e+01 1.57e+02  -9.0 4.04e+04    -  2.30e-02 5.39e-03h  1
 312 -1.3991211e-01 5.14e+01 1.72e+02  -9.0 2.53e+03    -  2.11e-02 6.22e-01h  1
 313 -1.3991247e-01 5.10e+01 1.71e+02  -9.0 4.27e+03    -  4.21e-04 7.35e-03h  1
 314 -1.3991801e-01 4.05e+01 8.25e+01  -9.0 1.51e+03    -  1.49e-02 2.73e-01h  1
 315 -1.3991923e-01 3.95e+01 8.03e+01  -9.0 3.04e+03    -  1.57e-02 2.71e-02h  1
 316 -1.3992707e-01 3.26e+01 5.66e+01  -9.0 1.64e+03    -  3.24e-01 2.89e-01h  1
 317 -1.3992965e-01 3.06e+01 5.25e+01  -9.0 1.69e+03    -  4.57e-02 7.18e-02h  1
 318 -1.3993357e-01 2.82e+01 1.52e+02  -9.0 1.70e+03    -  2.18e-01 9.47e-02h  1
 319 -1.3995125e-01 2.55e+01 5.03e+04  -9.0 1.62e+03    -  5.01e-03 3.95e-01h  1
iter    objective    inf_pr   inf_du lg(mu)  ||d||  lg(rg) alpha_du alpha_pr  ls
 320 -1.3995195e-01 2.53e+01 4.98e+04  -9.0 1.72e+03    -  4.28e-01 8.34e-03h  1
 321 -1.3995465e-01 2.44e+01 4.81e+04  -9.0 3.00e+03    -  1.99e-02 3.60e-02h  1
 322 -1.3995569e-01 2.37e+01 4.66e+04  -9.0 5.66e+03    -  5.33e-03 2.94e-02h  1
 323 -1.3995712e-01 2.25e+01 4.42e+04  -9.0 9.35e+02    -  3.21e-02 5.27e-02h  1
 324 -1.3996348e-01 1.76e+01 3.45e+04  -9.0 2.57e+02    -  1.02e-01 2.20e-01h  1
 325 -1.3998160e-01 7.91e+00 1.43e+04  -9.0 2.70e+02    -  8.80e-02 5.85e-01h  1
 326 -1.4002150e-01 1.58e+00 5.67e+02  -9.0 2.56e+02    -  6.52e-01 1.00e+00h  1
 327 -1.4003467e-01 1.25e+00 5.68e+02  -9.0 2.72e+02    -  3.33e-01 1.87e-01h  1
 328 -1.4005750e-01 1.08e+00 6.99e+03  -9.0 3.21e+02    -  8.57e-01 2.58e-01h  1
 329r-1.4005750e-01 1.08e+00 1.00e+03  -0.2 0.00e+00    -  0.00e+00 5.21e-09R  2
iter    objective    inf_pr   inf_du lg(mu)  ||d||  lg(rg) alpha_du alpha_pr  ls
 330r-1.4005787e-01 1.08e+00 6.28e+03  -0.2 4.34e+05    -  8.02e-09 3.51e-09f  1
 331 -1.4005804e-01 1.06e+00 1.61e+04  -9.0 4.09e+01    -  1.10e-06 1.77e-02h  1
 332 -1.4005619e-01 1.05e+00 1.60e+04  -9.0 7.38e+02    -  3.19e-04 8.33e-03h  1
 333 -1.4005599e-01 1.05e+00 1.60e+04  -9.0 1.02e+02    -  1.37e-03 1.55e-03h  1
 334 -1.4005417e-01 1.03e+00 1.57e+04  -9.0 8.61e+01    -  6.16e-03 1.73e-02h  1
 335 -1.4001215e-01 5.54e-01 1.31e+05  -9.0 8.99e+01    -  3.50e-02 4.63e-01h  1
 336 -1.4000396e-01 4.92e-01 1.38e+05  -9.0 1.12e+02    -  1.09e-02 1.13e-01h  1
 337 -1.3998467e-01 3.55e-01 6.83e+04  -9.0 1.12e+02    -  1.46e-04 2.78e-01h  1
 338 -1.3997465e-01 2.48e-01 5.63e+06  -9.0 7.27e+01    -  1.58e-02 3.03e-01h  1
 339 -1.3996929e-01 1.91e-01 6.46e+06  -9.0 5.80e+01    -  2.28e-01 2.27e-01h  1
iter    objective    inf_pr   inf_du lg(mu)  ||d||  lg(rg) alpha_du alpha_pr  ls
 340 -1.3996065e-01 1.76e-02 2.39e+07  -9.0 2.71e+01    -  5.70e-01 1.00e+00h  1
 341 -1.3996175e-01 1.76e-02 2.37e+07  -9.0 3.57e+02    -  1.41e-01 6.17e-03h  1
 342 -1.4003393e-01 7.80e-01 8.82e+07  -9.0 3.63e+02    -  4.32e-02 4.95e-01h  1
In iteration 342, 1 Slack too small, adjusting variable bound
 343 -1.4003446e-01 7.65e-01 8.66e+07  -9.0 9.46e+00  -2.1 1.13e-02 1.88e-02h  1
 344 -1.4003529e-01 7.34e-01 8.30e+07  -9.0 9.41e+00  -2.6 1.87e-02 4.05e-02h  1
 345 -1.4003552e-01 7.22e-01 8.17e+07  -9.0 9.48e+00  -3.1 1.41e-01 1.61e-02h  1
 346 -1.4003488e-01 6.65e-01 7.52e+07  -9.0 1.36e+01  -3.5 2.54e-08 7.95e-02h  1
 347 -1.4003489e-01 6.64e-01 7.52e+07  -9.0 8.53e+00  -3.1 2.69e-01 5.45e-04h  1
 348 -1.4003261e-01 5.84e-01 1.24e+10  -9.0 1.53e+01  -3.6 7.20e-08 1.20e-01h  1
 349 -1.4003276e-01 5.75e-01 1.22e+10  -9.0 7.68e+00  -3.2 2.50e-02 1.57e-02f  1
iter    objective    inf_pr   inf_du lg(mu)  ||d||  lg(rg) alpha_du alpha_pr  ls
 350 -1.4005045e-01 2.22e-01 4.42e+09  -9.0 5.95e+01    -  2.09e-07 6.37e-01f  1
 351 -1.4005037e-01 1.88e-01 3.75e+09  -9.0 2.96e+00  -3.6 1.15e-07 1.53e-01h  1
 352 -1.4005162e-01 1.34e-01 2.64e+09  -9.0 2.91e+01    -  5.29e-01 2.97e-01f  1
 353 -1.4004923e-01 6.25e-02 1.23e+09  -9.0 2.05e+00    -  4.48e-01 5.34e-01h  1
 354 -1.4004985e-01 4.91e-04 3.03e+05  -9.0 4.57e+00    -  5.08e-01 1.00e+00h  1
 355 -1.4005050e-01 5.83e-07 4.50e+02  -9.0 1.55e-01    -  5.93e-01 1.00e+00h  1
 356 -1.4005203e-01 3.37e-06 1.92e+02  -9.0 3.73e-01    -  5.80e-01 1.00e+00h  1
 357 -1.4005539e-01 2.77e-05 8.03e+01  -9.0 1.13e+00    -  5.77e-01 1.00e+00h  1
 358 -1.4006167e-01 3.88e-04 3.38e+01  -9.0 4.24e+00    -  5.69e-01 1.00e+00h  1
 359 -1.4006786e-01 3.52e-03 5.64e+00  -9.0 1.66e+01    -  5.71e-01 7.61e-01h  1
iter    objective    inf_pr   inf_du lg(mu)  ||d||  lg(rg) alpha_du alpha_pr  ls
 360 -1.4008249e-01 3.85e-02 6.37e+00  -9.0 4.22e+01    -  5.35e-01 1.00e+00h  1
 361 -1.4008358e-01 3.69e-02 7.24e+00  -9.0 7.23e+01    -  5.72e-01 4.86e-02h  1
 362 -1.4011344e-01 2.92e-01 2.55e+00  -9.0 1.29e+02    -  3.76e-01 8.93e-01h  1
 363 -1.4011166e-01 7.05e-02 4.09e-01  -9.0 3.38e+01    -  7.08e-01 8.16e-01h  1
 364 -1.4011662e-01 1.14e-01 9.90e-02  -9.0 7.22e+01    -  8.09e-01 1.00e+00f  1
 365 -1.4011427e-01 8.68e-03 1.21e-01  -9.0 1.98e+01    -  8.15e-01 1.00e+00h  1
 366 -1.4011444e-01 1.90e-02 7.15e-02  -9.0 6.81e+01    -  8.47e-01 4.11e-01h  1
 367 -1.4011442e-01 2.77e-02 2.25e-03  -9.0 1.42e+02    -  9.31e-01 1.00e+00H  1
 368 -1.4011445e-01 9.05e-03 2.26e-05  -9.0 2.17e+01    -  1.00e+00 1.00e+00h  1
 369 -1.4011445e-01 1.21e-06 1.77e-09  -9.0 2.41e-01    -  1.00e+00 1.00e+00h  1
iter    objective    inf_pr   inf_du lg(mu)  ||d||  lg(rg) alpha_du alpha_pr  ls
 370 -1.4011445e-01 2.83e-10 4.65e-14  -9.0 6.78e-05    -  1.00e+00 1.00e+00h  1

Number of Iterations....: 370

                                   (scaled)                 (unscaled)
Objective...............:  -1.4011444554025423e-01   -1.4011444554025423e-01
Dual infeasibility......:   4.6490589156178430e-14    4.6490589156178430e-14
Constraint violation....:   2.8305702920450315e-10    2.8305702920450315e-10
Complementarity.........:   9.0909096500024616e-10    9.0909096500024616e-10
Overall NLP error.......:   9.0909096500024616e-10    9.0909096500024616e-10


Number of objective function evaluations             = 535
Number of objective gradient evaluations             = 371
Number of equality constraint evaluations            = 543
Number of inequality constraint evaluations          = 536
Number of equality constraint Jacobian evaluations   = 379
Number of inequality constraint Jacobian evaluations = 379
Number of Lagrangian Hessian evaluations             = 370
Total CPU secs in IPOPT (w/o function evaluations)   =    162.500
Total CPU secs in NLP function evaluations           =      6.226

EXIT: Optimal Solution Found.
